p cep 159 3752
1 27
1 79
2 3
2 8
2 11
2 18
2 29
2 37
2 38
2 48
2 50
2 58
2 61
2 62
2 66
2 67
2 70
2 71
2 80
2 85
2 87
2 95
2 101
2 103
2 104
2 113
2 115
2 116
2 121
2 125
2 131
2 135
2 136
2 142
2 146
2 147
2 149
3 4
3 5
3 6
3 8
3 10
3 11
3 12
3 13
3 14
3 15
3 16
3 18
3 19
3 20
3 22
3 23
3 24
3 25
3 28
3 29
3 31
3 35
3 37
3 38
3 39
3 40
3 41
3 43
3 44
3 45
3 47
3 48
3 49
3 50
3 51
3 52
3 53
3 55
3 57
3 58
3 59
3 60
3 61
3 62
3 63
3 65
3 66
3 67
3 68
3 70
3 71
3 72
3 73
3 75
3 76
3 78
3 80
3 82
3 83
3 84
3 85
3 86
3 87
3 88
3 91
3 92
3 94
3 95
3 96
3 97
3 98
3 99
3 101
3 103
3 104
3 106
3 110
3 111
3 112
3 113
3 115
3 116
3 117
3 118
3 119
3 121
3 123
3 125
3 126
3 127
3 128
3 130
3 131
3 132
3 134
3 135
3 136
3 137
3 138
3 139
3 140
3 142
3 145
3 146
3 147
3 148
3 149
3 151
3 154
3 156
3 158
4 5
4 15
4 24
4 25
4 30
4 32
4 37
4 40
4 43
4 47
4 51
4 53
4 55
4 58
4 60
4 62
4 71
4 73
4 80
4 84
4 89
4 90
4 91
4 93
4 95
4 101
4 103
4 105
4 107
4 109
4 112
4 114
4 115
4 116
4 117
4 118
4 121
4 123
4 124
4 128
4 129
4 130
4 133
4 137
4 140
4 141
4 151
4 154
4 157
5 10
5 15
5 24
5 25
5 30
5 32
5 37
5 40
5 43
5 47
5 51
5 52
5 53
5 58
5 68
5 71
5 72
5 73
5 84
5 87
5 89
5 90
5 91
5 93
5 95
5 98
5 103
5 105
5 106
5 107
5 109
5 110
5 112
5 114
5 115
5 116
5 117
5 121
5 123
5 124
5 129
5 130
5 133
5 137
5 140
5 141
5 151
5 154
5 157
6 7
6 8
6 9
6 12
6 13
6 14
6 15
6 18
6 21
6 22
6 24
6 34
6 35
6 37
6 39
6 44
6 46
6 47
6 51
6 57
6 58
6 59
6 63
6 65
6 66
6 67
6 68
6 69
6 70
6 71
6 74
6 75
6 76
6 78
6 83
6 87
6 88
6 92
6 94
6 95
6 96
6 100
6 101
6 102
6 103
6 106
6 110
6 112
6 115
6 116
6 118
6 119
6 120
6 121
6 122
6 125
6 127
6 128
6 130
6 132
6 135
6 136
6 138
6 145
6 146
6 150
6 152
6 156
6 158
6 159
7 9
7 12
7 13
7 14
7 21
7 22
7 34
7 35
7 36
7 57
7 59
7 65
7 68
7 69
7 71
7 74
7 75
7 76
7 83
7 87
7 88
7 92
7 94
7 96
7 98
7 100
7 102
7 103
7 106
7 110
7 115
7 119
7 120
7 122
7 127
7 138
7 145
7 150
7 152
7 156
7 158
7 159
8 11
8 12
8 13
8 14
8 15
8 22
8 23
8 29
8 35
8 36
8 37
8 45
8 47
8 48
8 50
8 52
8 57
8 58
8 59
8 60
8 62
8 66
8 67
8 70
8 71
8 72
8 75
8 78
8 80
8 82
8 83
8 86
8 88
8 94
8 95
8 96
8 98
8 101
8 103
8 106
8 113
8 115
8 116
8 121
8 125
8 127
8 131
8 134
8 135
8 139
8 146
8 148
8 156
8 158
9 12
9 13
9 14
9 22
9 34
9 35
9 46
9 59
9 65
9 69
9 74
9 75
9 76
9 88
9 92
9 94
9 96
9 100
9 102
9 119
9 120
9 122
9 127
9 145
9 150
9 152
9 156
9 158
9 159
10 11
10 18
10 24
10 25
10 28
10 29
10 36
10 37
10 38
10 45
10 48
10 51
10 52
10 54
10 57
10 58
10 62
10 71
10 72
10 73
10 78
10 80
10 83
10 95
10 97
10 98
10 101
10 103
10 104
10 111
10 112
10 113
10 115
10 116
10 118
10 121
10 128
10 130
10 131
10 136
11 29
11 36
11 45
11 48
11 50
11 52
11 56
11 57
11 58
11 66
11 67
11 68
11 70
11 71
11 72
11 78
11 83
11 95
11 98
11 103
11 106
11 110
11 113
11 115
11 116
11 121
11 125
11 131
11 135
11 138
11 146
12 13
12 14
12 15
12 18
12 21
12 22
12 24
12 34
12 35
12 37
12 39
12 44
12 46
12 47
12 51
12 57
12 58
12 59
12 63
12 65
12 66
12 67
12 68
12 69
12 70
12 71
12 74
12 75
12 76
12 78
12 83
12 87
12 88
12 92
12 94
12 95
12 96
12 100
12 101
12 102
12 103
12 106
12 110
12 112
12 115
12 116
12 118
12 119
12 120
12 121
12 122
12 125
12 127
12 128
12 130
12 132
12 135
12 136
12 138
12 145
12 146
12 150
12 152
12 156
12 158
12 159
13 14
13 15
13 18
13 21
13 22
13 24
13 34
13 35
13 37
13 39
13 44
13 46
13 47
13 51
13 57
13 58
13 59
13 63
13 65
13 66
13 67
13 68
13 69
13 70
13 71
13 74
13 75
13 76
13 78
13 83
13 87
13 88
13 92
13 94
13 95
13 96
13 100
13 101
13 102
13 103
13 106
13 110
13 112
13 115
13 116
13 118
13 119
13 120
13 121
13 122
13 125
13 127
13 128
13 130
13 132
13 135
13 136
13 138
13 145
13 146
13 150
13 152
13 156
13 158
13 159
14 15
14 18
14 21
14 22
14 24
14 34
14 35
14 37
14 39
14 44
14 46
14 47
14 51
14 57
14 58
14 59
14 63
14 65
14 66
14 67
14 68
14 69
14 70
14 71
14 74
14 75
14 76
14 78
14 83
14 87
14 88
14 92
14 94
14 95
14 96
14 100
14 101
14 102
14 103
14 106
14 110
14 112
14 115
14 116
14 118
14 119
14 120
14 121
14 122
14 125
14 127
14 128
14 130
14 132
14 135
14 136
14 138
14 145
14 146
14 150
14 152
14 156
14 158
14 159
15 16
15 18
15 19
15 20
15 22
15 23
15 24
15 25
15 29
15 30
15 31
15 32
15 37
15 39
15 40
15 41
15 43
15 47
15 51
15 55
15 57
15 58
15 59
15 60
15 62
15 66
15 67
15 68
15 70
15 71
15 77
15 78
15 79
15 80
15 82
15 83
15 84
15 86
15 87
15 88
15 91
15 93
15 94
15 95
15 96
15 98
15 99
15 101
15 103
15 104
15 106
15 110
15 112
15 113
15 115
15 116
15 117
15 121
15 123
15 125
15 126
15 127
15 130
15 131
15 132
15 134
15 135
15 136
15 137
15 138
15 139
15 140
15 146
15 148
15 151
15 154
15 156
15 157
15 158
16 18
16 29
16 37
16 48
16 58
16 60
16 61
16 62
16 71
16 77
16 80
16 82
16 95
16 101
16 103
16 104
16 113
16 115
16 116
16 121
16 131
16 136
16 139
16 142
16 148
17 18
17 61
17 62
17 80
17 85
17 101
17 104
17 136
17 142
17 147
18 22
18 29
18 37
18 38
18 48
18 52
18 58
18 59
18 60
18 61
18 62
18 71
18 72
18 77
18 80
18 82
18 85
18 88
18 94
18 95
18 96
18 101
18 103
18 104
18 113
18 115
18 116
18 121
18 127
18 131
18 136
18 139
18 142
18 147
18 148
18 149
18 156
18 158
19 31
19 37
19 39
19 47
19 58
19 60
19 71
19 80
19 82
19 86
19 95
19 101
19 103
19 115
19 116
19 121
19 132
19 139
20 29
20 37
20 38
20 41
20 47
20 48
20 49
20 58
20 60
20 62
20 71
20 80
20 82
20 86
20 95
20 101
20 103
20 104
20 113
20 115
20 116
20 121
20 126
20 131
20 139
20 148
21 22
21 34
21 35
21 36
21 57
21 59
21 68
21 69
21 74
21 75
21 83
21 87
21 88
21 92
21 94
21 96
21 106
21 110
21 120
21 122
21 127
21 138
21 150
21 156
21 158
22 24
22 34
22 35
22 37
22 39
22 44
22 46
22 47
22 51
22 57
22 58
22 59
22 63
22 65
22 66
22 67
22 68
22 69
22 70
22 71
22 74
22 75
22 76
22 78
22 83
22 87
22 88
22 92
22 94
22 95
22 96
22 100
22 101
22 102
22 103
22 106
22 110
22 112
22 115
22 116
22 118
22 119
22 120
22 121
22 122
22 125
22 127
22 128
22 130
22 132
22 135
22 136
22 138
22 145
22 146
22 150
22 152
22 156
22 158
22 159
23 24
23 31
23 37
23 39
23 47
23 51
23 55
23 58
23 60
23 62
23 66
23 67
23 68
23 70
23 71
23 80
23 82
23 86
23 95
23 98
23 101
23 103
23 104
23 106
23 110
23 112
23 113
23 115
23 116
23 117
23 121
23 125
23 130
23 131
23 132
23 134
23 135
23 138
23 139
23 146
23 148
23 154
24 25
24 26
24 28
24 30
24 32
24 37
24 40
24 43
24 44
24 47
24 51
24 52
24 53
24 54
24 55
24 57
24 58
24 59
24 60
24 62
24 63
24 65
24 68
24 71
24 72
24 73
24 76
24 78
24 79
24 80
24 82
24 83
24 84
24 87
24 88
24 90
24 91
24 93
24 94
24 95
24 96
24 97
24 98
24 99
24 101
24 103
24 106
24 107
24 109
24 110
24 111
24 112
24 115
24 116
24 117
24 118
24 119
24 121
24 123
24 127
24 128
24 129
24 130
24 134
24 137
24 138
24 139
24 140
24 145
24 148
24 151
24 153
24 154
24 156
24 157
24 158
25 28
25 30
25 32
25 37
25 40
25 43
25 47
25 51
25 52
25 53
25 55
25 58
25 71
25 72
25 73
25 84
25 90
25 91
25 93
25 95
25 97
25 99
25 103
25 108
25 109
25 111
25 112
25 115
25 116
25 117
25 118
25 121
25 123
25 128
25 129
25 130
25 137
25 140
25 151
25 154
25 157
26 44
26 63
26 79
26 99
26 112
26 118
26 128
26 130
26 153
27 45
27 79
28 29
28 37
28 48
28 51
28 52
28 54
28 58
28 71
28 72
28 95
28 97
28 103
28 111
28 112
28 115
28 116
28 118
28 121
28 128
28 130
28 131
29 37
29 38
29 45
29 48
29 49
29 50
29 52
29 58
29 61
29 62
29 66
29 67
29 68
29 70
29 71
29 72
29 80
29 82
29 85
29 87
29 95
29 97
29 101
29 103
29 104
29 106
29 110
29 111
29 113
29 115
29 116
29 121
29 125
29 126
29 131
29 135
29 136
29 138
29 142
29 146
29 147
29 148
29 149
30 32
30 40
30 43
30 44
30 51
30 53
30 55
30 63
30 68
30 73
30 84
30 91
30 93
30 99
30 106
30 107
30 109
30 110
30 112
30 117
30 118
30 123
30 128
30 129
30 130
30 137
30 138
30 140
30 151
30 154
30 157
31 37
31 39
31 47
31 58
31 60
31 62
31 71
31 80
31 82
31 86
31 95
31 101
31 103
31 115
31 116
31 121
31 132
31 134
31 139
31 148
32 40
32 43
32 44
32 51
32 53
32 55
32 63
32 68
32 73
32 84
32 87
32 89
32 91
32 93
32 99
32 105
32 106
32 107
32 109
32 110
32 112
32 114
32 117
32 118
32 123
32 124
32 128
32 129
32 130
32 133
32 137
32 138
32 140
32 141
32 151
32 154
32 155
32 157
33 52
33 64
33 72
33 143
34 35
34 36
34 57
34 59
34 65
34 68
34 69
34 71
34 74
34 75
34 76
34 83
34 87
34 88
34 92
34 94
34 96
34 98
34 100
34 102
34 103
34 106
34 110
34 115
34 119
34 120
34 122
34 127
34 138
34 145
34 150
34 152
34 156
34 158
34 159
35 37
35 39
35 43
35 47
35 53
35 58
35 59
35 65
35 66
35 67
35 68
35 69
35 70
35 71
35 74
35 75
35 76
35 87
35 88
35 92
35 94
35 95
35 96
35 100
35 102
35 103
35 106
35 110
35 115
35 116
35 119
35 120
35 121
35 122
35 125
35 127
35 132
35 135
35 138
35 145
35 146
35 150
35 152
35 156
35 158
35 159
36 45
36 48
36 52
36 57
36 66
36 67
36 68
36 70
36 72
36 74
36 78
36 83
36 87
36 98
36 106
36 110
36 125
36 135
36 138
36 146
37 38
37 39
37 40
37 41
37 43
37 44
37 47
37 48
37 49
37 50
37 51
37 52
37 53
37 55
37 57
37 58
37 59
37 60
37 61
37 62
37 63
37 65
37 66
37 67
37 68
37 70
37 71
37 72
37 75
37 76
37 78
37 80
37 82
37 83
37 84
37 86
37 87
37 88
37 91
37 94
37 95
37 96
37 97
37 98
37 99
37 101
37 103
37 104
37 106
37 110
37 111
37 112
37 113
37 115
37 116
37 119
37 121
37 123
37 125
37 126
37 127
37 128
37 130
37 131
37 132
37 134
37 135
37 136
37 137
37 138
37 139
37 140
37 145
37 146
37 148
37 151
37 156
37 158
38 48
38 49
38 50
38 52
38 58
38 62
38 71
38 72
38 80
38 95
38 101
38 103
38 104
38 113
38 115
38 116
38 121
38 126
38 131
38 136
38 149
39 47
39 58
39 59
39 60
39 62
39 71
39 75
39 80
39 82
39 86
39 88
39 94
39 95
39 96
39 101
39 103
39 115
39 116
39 121
39 127
39 132
39 134
39 139
39 148
39 156
39 158
40 43
40 47
40 51
40 53
40 55
40 58
40 60
40 62
40 71
40 73
40 80
40 81
40 82
40 84
40 91
40 92
40 93
40 95
40 99
40 101
40 103
40 105
40 106
40 108
40 109
40 112
40 115
40 116
40 117
40 119
40 121
40 123
40 129
40 130
40 137
40 139
40 140
40 141
40 151
40 154
40 157
41 47
41 58
41 62
41 71
41 95
41 103
41 113
41 115
41 116
41 121
41 126
41 131
42 108
42 141
43 47
43 51
43 53
43 55
43 58
43 68
43 71
43 73
43 75
43 81
43 84
43 87
43 91
43 93
43 95
43 99
43 103
43 106
43 107
43 108
43 109
43 110
43 112
43 115
43 116
43 117
43 121
43 123
43 129
43 130
43 137
43 140
43 141
43 151
43 154
43 157
44 47
44 51
44 53
44 55
44 58
44 59
44 63
44 71
44 88
44 93
44 94
44 95
44 96
44 99
44 103
44 112
44 115
44 116
44 118
44 119
44 121
44 127
44 128
44 130
44 151
44 153
44 156
44 157
44 158
45 48
45 52
45 57
45 58
45 66
45 67
45 70
45 71
45 72
45 73
45 78
45 79
45 83
45 90
45 95
45 98
45 103
45 106
45 113
45 115
45 116
45 121
45 125
45 131
45 135
45 146
46 59
46 69
46 88
46 92
46 94
46 96
46 102
46 120
46 122
46 127
46 150
46 152
46 156
46 158
46 159
47 51
47 53
47 55
47 57
47 58
47 59
47 60
47 62
47 63
47 65
47 66
47 67
47 68
47 70
47 71
47 73
47 75
47 76
47 78
47 80
47 82
47 83
47 84
47 86
47 87
47 88
47 90
47 91
47 94
47 95
47 96
47 98
47 99
47 101
47 103
47 104
47 106
47 109
47 110
47 112
47 113
47 115
47 116
47 118
47 119
47 121
47 123
47 125
47 126
47 127
47 128
47 129
47 130
47 131
47 132
47 134
47 135
47 137
47 138
47 139
47 140
47 145
47 146
47 148
47 151
47 156
47 158
48 49
48 50
48 52
48 58
48 61
48 62
48 66
48 67
48 68
48 70
48 71
48 72
48 80
48 82
48 85
48 87
48 95
48 97
48 98
48 101
48 103
48 104
48 106
48 110
48 111
48 113
48 115
48 116
48 121
48 125
48 126
48 131
48 135
48 136
48 138
48 142
48 146
48 147
48 148
48 149
49 58
49 71
49 95
49 103
49 113
49 115
49 116
49 121
49 126
49 131
50 52
50 58
50 61
50 62
50 66
50 67
50 68
50 70
50 71
50 72
50 80
50 85
50 87
50 95
50 101
50 103
50 104
50 106
50 110
50 113
50 115
50 116
50 121
50 125
50 131
50 135
50 138
50 142
50 146
50 147
50 149
51 52
51 53
51 54
51 55
51 57
51 58
51 59
51 60
51 62
51 63
51 65
51 68
51 71
51 72
51 73
51 76
51 78
51 80
51 82
51 83
51 84
51 87
51 88
51 90
51 91
51 93
51 94
51 95
51 96
51 97
51 98
51 99
51 101
51 103
51 106
51 107
51 109
51 110
51 111
51 112
51 115
51 116
51 117
51 118
51 119
51 121
51 123
51 127
51 128
51 129
51 130
51 134
51 137
51 138
51 139
51 140
51 145
51 148
51 151
51 154
51 156
51 157
51 158
52 54
52 57
52 58
52 62
52 64
52 66
52 67
52 70
52 71
52 72
52 73
52 78
52 80
52 83
52 95
52 97
52 98
52 101
52 103
52 104
52 111
52 112
52 113
52 115
52 116
52 118
52 121
52 125
52 128
52 130
52 131
52 135
52 136
52 143
52 146
53 55
53 58
53 63
53 68
53 71
53 73
53 75
53 84
53 87
53 89
53 90
53 91
53 93
53 95
53 99
53 103
53 105
53 106
53 107
53 108
53 109
53 110
53 112
53 114
53 115
53 116
53 117
53 118
53 121
53 123
53 124
53 128
53 129
53 130
53 133
53 137
53 140
53 141
53 151
53 154
53 157
54 72
54 97
54 111
54 112
54 130
55 57
55 58
55 60
55 62
55 63
55 71
55 73
55 78
55 80
55 82
55 83
55 84
55 86
55 91
55 93
55 95
55 98
55 99
55 103
55 107
55 109
55 112
55 115
55 116
55 117
55 118
55 121
55 123
55 128
55 129
55 130
55 134
55 137
55 139
55 140
55 151
55 154
55 157
57 58
57 59
57 60
57 62
57 66
57 67
57 68
57 70
57 71
57 72
57 73
57 74
57 78
57 80
57 82
57 83
57 87
57 88
57 94
57 95
57 96
57 98
57 99
57 101
57 103
57 106
57 110
57 112
57 115
57 116
57 121
57 125
57 127
57 130
57 135
57 138
57 139
57 146
57 151
57 156
57 158
58 59
58 60
58 61
58 62
58 63
58 65
58 66
58 67
58 68
58 70
58 71
58 72
58 73
58 75
58 76
58 78
58 80
58 82
58 83
58 84
58 85
58 86
58 87
58 88
58 91
58 92
58 94
58 95
58 96
58 97
58 98
58 99
58 101
58 103
58 104
58 106
58 110
58 111
58 112
58 113
58 115
58 116
58 117
58 118
58 119
58 121
58 123
58 125
58 126
58 127
58 128
58 129
58 130
58 131
58 132
58 134
58 135
58 136
58 137
58 138
58 139
58 140
58 142
58 145
58 146
58 147
58 148
58 149
58 151
58 154
58 156
58 158
59 63
59 65
59 66
59 67
59 68
59 69
59 70
59 71
59 74
59 75
59 76
59 78
59 83
59 87
59 88
59 92
59 94
59 95
59 96
59 100
59 101
59 102
59 103
59 106
59 110
59 112
59 115
59 116
59 118
59 119
59 120
59 121
59 122
59 125
59 127
59 128
59 130
59 132
59 135
59 136
59 138
59 145
59 146
59 150
59 152
59 156
59 158
59 159
60 62
60 66
60 67
60 68
60 70
60 71
60 78
60 80
60 82
60 83
60 84
60 86
60 91
60 95
60 98
60 99
60 101
60 103
60 104
60 106
60 110
60 112
60 113
60 115
60 116
60 121
60 123
60 125
60 129
60 130
60 131
60 132
60 134
60 135
60 136
60 137
60 138
60 139
60 140
60 146
60 148
61 62
61 71
61 77
61 80
61 82
61 85
61 95
61 101
61 103
61 104
61 113
61 115
61 116
61 121
61 131
61 136
61 139
61 142
61 147
61 148
62 66
62 67
62 68
62 70
62 71
62 72
62 77
62 78
62 79
62 80
62 82
62 83
62 84
62 85
62 86
62 87
62 91
62 95
62 98
62 99
62 101
62 103
62 104
62 110
62 112
62 113
62 115
62 116
62 117
62 121
62 123
62 125
62 126
62 130
62 131
62 132
62 134
62 135
62 136
62 137
62 138
62 139
62 140
62 142
62 146
62 147
62 148
62 149
62 154
63 71
63 88
63 93
63 94
63 95
63 96
63 99
63 103
63 112
63 115
63 116
63 118
63 119
63 121
63 127
63 128
63 130
63 151
63 153
63 156
63 157
63 158
64 72
64 143
65 68
65 69
65 71
65 74
65 75
65 76
65 87
65 88
65 92
65 94
65 95
65 96
65 100
65 102
65 103
65 106
65 110
65 112
65 115
65 116
65 119
65 120
65 121
65 122
65 127
65 130
65 138
65 145
65 150
65 152
65 156
65 158
65 159
66 67
66 70
66 71
66 72
66 75
66 78
66 80
66 82
66 83
66 86
66 88
66 94
66 95
66 96
66 98
66 101
66 103
66 106
66 113
66 115
66 116
66 121
66 125
66 127
66 131
66 134
66 135
66 139
66 146
66 148
66 156
66 158
67 70
67 71
67 72
67 75
67 78
67 80
67 82
67 83
67 86
67 88
67 94
67 95
67 96
67 98
67 101
67 103
67 106
67 113
67 115
67 116
67 121
67 125
67 127
67 131
67 134
67 135
67 139
67 146
67 148
67 156
67 158
68 69
68 71
68 74
68 75
68 76
68 78
68 80
68 82
68 83
68 86
68 87
68 88
68 92
68 93
68 94
68 95
68 96
68 98
68 99
68 101
68 103
68 104
68 106
68 110
68 112
68 113
68 115
68 116
68 119
68 120
68 121
68 122
68 127
68 129
68 130
68 131
68 134
68 138
68 139
68 145
68 148
68 150
68 156
68 157
68 158
69 74
69 75
69 76
69 87
69 88
69 92
69 94
69 96
69 100
69 102
69 106
69 110
69 119
69 120
69 122
69 127
69 138
69 145
69 150
69 152
69 156
69 158
69 159
70 71
70 72
70 75
70 78
70 80
70 82
70 83
70 86
70 88
70 94
70 95
70 96
70 98
70 101
70 103
70 106
70 113
70 115
70 116
70 121
70 125
70 127
70 131
70 134
70 135
70 139
70 146
70 148
70 156
70 158
71 72
71 73
71 74
71 75
71 76
71 78
71 80
71 82
71 83
71 84
71 85
71 86
71 87
71 88
71 90
71 91
71 92
71 94
71 95
71 96
71 97
71 98
71 99
71 100
71 101
71 103
71 104
71 106
71 109
71 110
71 111
71 112
71 113
71 115
71 116
71 117
71 118
71 119
71 121
71 123
71 125
71 126
71 127
71 128
71 129
71 130
71 131
71 132
71 134
71 135
71 136
71 137
71 138
71 139
71 140
71 142
71 145
71 146
71 147
71 148
71 149
71 151
71 154
71 156
71 158
72 73
72 78
72 80
72 83
72 95
72 97
72 98
72 101
72 103
72 104
72 111
72 112
72 113
72 115
72 116
72 118
72 121
72 125
72 128
72 130
72 131
72 135
72 136
72 143
72 146
73 78
73 83
73 84
73 90
73 91
73 93
73 95
73 103
73 109
73 112
73 116
73 117
73 118
73 121
73 123
73 128
73 129
73 130
73 137
73 140
73 151
73 154
73 157
74 75
74 76
74 83
74 87
74 88
74 92
74 94
74 96
74 98
74 100
74 102
74 103
74 106
74 110
74 115
74 119
74 120
74 122
74 127
74 138
74 145
74 150
74 152
74 156
74 158
74 159
75 76
75 87
75 88
75 92
75 94
75 95
75 96
75 100
75 102
75 103
75 106
75 110
75 115
75 116
75 119
75 120
75 121
75 122
75 125
75 127
75 135
75 138
75 145
75 146
75 150
75 152
75 156
75 158
75 159
76 88
76 92
76 94
76 95
76 96
76 100
76 102
76 106
76 110
76 112
76 115
76 116
76 119
76 120
76 121
76 122
76 127
76 130
76 138
76 145
76 150
76 152
76 156
76 158
76 159
77 80
77 82
77 101
77 104
77 136
77 139
77 148
78 80
78 82
78 83
78 88
78 94
78 95
78 96
78 98
78 99
78 101
78 103
78 106
78 110
78 112
78 115
78 116
78 121
78 125
78 127
78 130
78 135
78 139
78 146
78 151
78 156
78 158
79 99
79 112
79 130
79 153
80 82
80 83
80 84
80 85
80 86
80 87
80 91
80 95
80 98
80 99
80 101
80 103
80 104
80 106
80 110
80 112
80 113
80 115
80 116
80 117
80 121
80 123
80 125
80 129
80 130
80 131
80 132
80 134
80 135
80 136
80 137
80 138
80 139
80 140
80 142
80 146
80 147
80 148
80 149
80 151
80 154
81 109
81 117
81 154
82 83
82 86
82 87
82 95
82 98
82 101
82 103
82 104
82 106
82 110
82 112
82 113
82 115
82 116
82 121
82 125
82 130
82 131
82 132
82 134
82 135
82 136
82 138
82 139
82 142
82 146
82 148
83 87
83 88
83 94
83 95
83 96
83 98
83 99
83 101
83 103
83 106
83 110
83 112
83 115
83 116
83 121
83 125
83 127
83 130
83 135
83 138
83 139
83 146
83 151
83 156
83 158
84 89
84 90
84 91
84 93
84 95
84 101
84 103
84 105
84 107
84 109
84 112
84 114
84 115
84 116
84 117
84 118
84 121
84 123
84 124
84 128
84 129
84 130
84 133
84 137
84 140
84 141
84 151
84 154
84 157
85 95
85 101
85 103
85 104
85 113
85 115
85 116
85 121
85 131
85 136
85 142
85 147
86 95
86 98
86 101
86 103
86 104
86 106
86 110
86 113
86 115
86 116
86 121
86 125
86 131
86 132
86 134
86 135
86 138
86 139
86 146
86 148
87 88
87 93
87 94
87 95
87 96
87 98
87 99
87 101
87 103
87 104
87 106
87 110
87 112
87 113
87 115
87 116
87 120
87 121
87 122
87 127
87 129
87 130
87 131
87 138
87 145
87 150
87 156
87 157
87 158
88 92
88 94
88 95
88 96
88 100
88 101
88 102
88 103
88 106
88 110
88 112
88 115
88 116
88 118
88 119
88 120
88 121
88 122
88 125
88 127
88 128
88 130
88 132
88 135
88 136
88 138
88 145
88 146
88 150
88 152
88 156
88 158
88 159
89 91
89 93
89 105
89 114
89 123
89 124
89 129
89 133
89 137
89 140
89 151
89 157
90 91
90 103
90 112
90 115
90 123
90 130
90 137
90 140
90 151
91 93
91 95
91 101
91 103
91 105
91 107
91 109
91 112
91 114
91 115
91 116
91 117
91 118
91 121
91 123
91 124
91 128
91 129
91 130
91 133
91 137
91 140
91 141
91 151
91 154
91 157
92 94
92 95
92 96
92 100
92 102
92 106
92 110
92 116
92 119
92 120
92 121
92 122
92 127
92 138
92 144
92 145
92 150
92 152
92 156
92 158
92 159
93 99
93 105
93 106
93 107
93 109
93 110
93 112
93 114
93 117
93 118
93 123
93 124
93 128
93 129
93 130
93 133
93 137
93 138
93 140
93 141
93 151
93 154
93 155
93 157
94 95
94 96
94 100
94 101
94 102
94 103
94 106
94 110
94 112
94 115
94 116
94 118
94 119
94 120
94 121
94 122
94 125
94 127
94 128
94 130
94 132
94 135
94 136
94 138
94 145
94 146
94 150
94 152
94 156
94 158
94 159
95 96
95 97
95 98
95 99
95 101
95 103
95 104
95 106
95 109
95 110
95 111
95 112
95 113
95 115
95 116
95 117
95 118
95 119
95 121
95 123
95 125
95 126
95 127
95 128
95 130
95 131
95 132
95 134
95 135
95 136
95 137
95 138
95 139
95 140
95 142
95 145
95 146
95 147
95 148
95 149
95 151
95 154
95 156
95 158
96 100
96 101
96 102
96 103
96 106
96 110
96 112
96 115
96 116
96 118
96 119
96 120
96 121
96 122
96 125
96 127
96 128
96 130
96 132
96 135
96 136
96 138
96 145
96 146
96 150
96 152
96 156
96 158
96 159
97 103
97 111
97 112
97 115
97 116
97 118
97 121
97 128
97 130
97 131
98 99
98 101
98 103
98 106
98 110
98 112
98 115
98 116
98 121
98 125
98 130
98 134
98 135
98 138
98 139
98 146
98 148
98 151
99 103
99 104
99 106
99 109
99 110
99 112
99 113
99 115
99 116
99 117
99 118
99 121
99 128
99 129
99 130
99 131
99 138
99 153
99 154
99 157
100 102
100 103
100 106
100 119
100 120
100 122
100 127
100 145
100 150
100 152
100 156
100 158
100 159
101 103
101 104
101 106
101 110
101 112
101 113
101 115
101 116
101 121
101 123
101 125
101 127
101 130
101 131
101 132
101 134
101 135
101 136
101 137
101 138
101 139
101 140
101 142
101 146
101 147
101 148
101 156
101 158
102 119
102 120
102 122
102 127
102 145
102 150
102 152
102 156
102 158
102 159
103 104
103 106
103 110
103 111
103 112
103 113
103 115
103 116
103 117
103 118
103 119
103 121
103 123
103 125
103 126
103 127
103 128
103 129
103 130
103 131
103 132
103 134
103 135
103 136
103 137
103 138
103 139
103 140
103 142
103 146
103 147
103 148
103 149
103 151
103 154
103 156
103 158
104 110
104 113
104 115
104 116
104 121
104 131
104 132
104 134
104 136
104 138
104 139
104 142
104 147
104 148
104 149
105 114
105 123
105 124
105 129
105 133
105 137
105 140
105 151
105 157
106 109
106 110
106 112
106 113
106 115
106 116
106 119
106 120
106 121
106 122
106 125
106 127
106 129
106 130
106 131
106 134
106 135
106 138
106 139
106 145
106 146
106 150
106 151
106 156
106 157
106 158
107 109
107 112
107 123
107 129
107 130
107 137
107 140
107 151
107 157
108 117
108 141
108 154
109 112
109 117
109 123
109 129
109 130
109 137
109 140
109 141
109 151
109 154
109 157
110 112
110 113
110 115
110 116
110 119
110 120
110 121
110 122
110 127
110 129
110 130
110 131
110 134
110 138
110 139
110 145
110 148
110 150
110 156
110 157
110 158
111 112
111 115
111 116
111 118
111 121
111 128
111 130
111 131
112 115
112 116
112 117
112 118
112 119
112 121
112 123
112 127
112 128
112 129
112 130
112 134
112 137
112 138
112 139
112 140
112 145
112 148
112 151
112 153
112 154
112 156
112 157
112 158
113 115
113 116
113 121
113 125
113 126
113 131
113 134
113 135
113 136
113 138
113 139
113 142
113 146
113 147
113 148
113 149
114 123
114 124
114 129
114 133
114 137
114 140
114 151
114 157
115 116
115 119
115 121
115 123
115 125
115 126
115 127
115 129
115 130
115 131
115 132
115 134
115 135
115 136
115 137
115 138
115 139
115 140
115 141
115 142
115 145
115 146
115 147
115 148
115 149
115 151
115 156
115 158
116 117
116 118
116 119
116 121
116 123
116 125
116 126
116 127
116 128
116 130
116 131
116 132
116 134
116 135
116 136
116 137
116 138
116 139
116 140
116 142
116 145
116 146
116 147
116 148
116 149
116 151
116 154
116 156
116 158
117 118
117 121
117 123
117 128
117 129
117 130
117 133
117 134
117 137
117 139
117 140
117 141
117 151
117 154
117 157
118 119
118 121
118 123
118 127
118 128
118 130
118 137
118 140
118 151
118 153
118 154
118 156
118 157
118 158
119 120
119 121
119 122
119 127
119 128
119 130
119 138
119 144
119 145
119 150
119 152
119 156
119 158
119 159
120 122
120 127
120 138
120 145
120 150
120 152
120 156
120 158
120 159
121 123
121 125
121 126
121 127
121 128
121 130
121 131
121 132
121 134
121 135
121 136
121 137
121 138
121 139
121 140
121 142
121 145
121 146
121 147
121 148
121 149
121 151
121 154
121 156
121 158
122 127
122 138
122 145
122 150
122 152
122 156
122 158
122 159
123 124
123 128
123 129
123 130
123 133
123 137
123 140
123 141
123 151
123 154
123 157
124 129
124 133
124 137
124 140
124 151
124 157
125 127
125 131
125 134
125 135
125 139
125 146
125 148
125 156
125 158
126 131
127 128
127 130
127 132
127 135
127 136
127 138
127 145
127 146
127 150
127 152
127 156
127 158
127 159
128 130
128 137
128 140
128 151
128 153
128 154
128 156
128 157
128 158
129 130
129 133
129 137
129 138
129 140
129 141
129 151
129 154
129 157
130 134
130 137
130 138
130 139
130 140
130 145
130 148
130 151
130 153
130 154
130 156
130 157
130 158
131 134
131 135
131 136
131 138
131 139
131 142
131 146
131 147
131 148
131 149
132 134
132 139
132 148
132 156
132 158
133 137
133 140
133 151
133 154
133 155
133 157
134 135
134 138
134 139
134 146
134 148
134 154
135 139
135 146
135 148
135 156
135 158
136 139
136 142
136 147
136 148
136 149
136 156
136 158
137 140
137 141
137 151
137 154
137 157
138 139
138 145
138 148
138 150
138 156
138 157
138 158
139 146
139 148
139 154
140 141
140 151
140 154
140 157
141 151
141 154
141 157
142 147
142 148
145 150
145 152
145 156
145 158
145 159
146 148
146 156
146 158
147 149
150 152
150 156
150 158
150 159
151 154
151 155
151 157
152 156
152 158
152 159
154 157
155 157
156 158
156 159
158 159
